100
1000
200
199
199
198
198
197
197
196
196
196
195
194
194
194
194
194
191
191
190
190
190
189
189
189
188
188
188
187
187
187
187
186
186
185
185
185
184
183
183
182
181
181
181
180
180
180
179
179
178
178
177
176
176
175
175
174
174
173
172
172
172
172
171
170
168
167
166
166
166
165
165
164
164
164
163
162
162
162
161
161
161
160
160
160
160
159
159
158
157
157
156
155
154
153
152
152
151
151
150
150
